18,1	0,0	15,4	9,1	0,0	0,0	0,0	0,0	0,0	15,5
16,7	9,6	0,0	16,5	14,6	0,0	0,0	13,9	0,0	0,0
0,0	0,0	13,6	0,0	19,6	14,5	0,0	0,0	10,3	0,0
6,6	0,0	10,7	0,0	0,0	0,0	10,5	0,0	0,0	0,0
0,0	16,4	0,0	8,0	9,2	0,0	0,0	5,1	0,0	0,0
0,0	18,6	13,1	0,0	15,9	12,8	0,0	0,0	10,9	0,0
0,0	10,9	0,0	15,2	0,0	0,0	16,4	0,0	0,0	11,7
17,9	0,0	12,9	0,0	0,0	0,0	0,0	0,0	0,0	11,2
0,0	15,7	0,0	15,0	8,9	0,0	0,0	11,4	0,0	0,0
0,0	0,0	15,2	0,0	0,0	18,5	18,8	0,0	0,0	10,4
									
4,6	3,4	4,8	3,6	4,2	3,3	4,6	4,2	4,6	3,5
